c 
p cnf 10 40
1 4 -9 0
8 2 -1 0
6 -7 2 0
4 8 5 0
-2 3 7 0
-6 -9 2 0
-7 2 5 0
-3 -5 9 0
7 -6 4 0
-8 10 -3 0
-3 -9 8 0
5 6 -1 0
10 9 4 0
10 2 3 0
2 -3 8 0
3 6 7 0
-3 -10 -5 0
-3 -8 7 0
3 2 6 0
-6 -5 2 0
-7 3 -1 0
10 2 -5 0
6 2 -10 0
-10 2 -5 0
5 6 -4 0
5 -9 -8 0
-1 -3 2 0
10 6 8 0
-8 -2 -1 0
-3 -4 10 0
3 -2 -9 0
-1 -10 9 0
-7 -9 -6 0
-8 6 7 0
-10 -9 -1 0
2 9 -8 0
4 9 2 0
-7 10 6 0
6 -3 -10 0
-2 9 7 0
